p cnf 50 1300 
1 -16 -32 0
1 -41 2 0
1 -45 40 0
1 17 21 0
1 -36 -29 0
1 -4 12 0
1 -32 -14 0
1 42 13 0
1 -44 -3 0
1 -5 -24 0
1 13 -15 0
1 -36 15 0
1 44 -11 0
1 23 50 0
1 -13 4 0
1 16 12 0
1 -15 47 0
1 21 -29 0
1 43 -22 0
1 -37 -44 0
1 -5 -12 0
1 -11 44 0
1 -47 29 0
1 41 -21 0
1 14 -25 0
1 -44 42 0
1 5 -13 0
1 11 32 0
1 -9 30 0
1 -11 -7 0
1 -35 -10 0
1 30 -35 0
1 -9 22 0
1 13 19 0
1 31 -19 0
1 1 18 0
1 47 46 0
1 -2 -8 0
1 17 -26 0
1 -10 25 0
1 46 23 0
1 -42 38 0
1 6 41 0
1 8 28 0
1 23 24 0
1 31 -9 0
1 -34 -23 0
1 47 -32 0
1 5 -31 0
1 18 27 0
1 -17 33 0
1 -10 -44 0
1 18 -41 0
1 -50 -19 0
1 41 -39 0
1 -21 -36 0
1 17 -31 0
1 8 41 0
1 -23 -38 0
1 32 -28 0
1 -19 23 0
1 -41 -44 0
1 33 25 0
1 -11 -48 0
1 29 -50 0
1 40 20 0
1 -7 -9 0
1 -36 10 0
1 32 35 0
1 28 21 0
1 45 21 0
1 -19 -41 0
1 -41 -43 0
1 -12 43 0
1 1 -38 0
1 -48 -44 0
1 29 11 0
1 31 4 0
1 -25 -29 0
1 -20 12 0
1 -4 24 0
1 -17 33 0
1 20 40 0
1 -34 43 0
1 3 -47 0
1 1 35 0
1 13 -37 0
1 -48 8 0
1 31 -32 0
1 14 -50 0
1 40 17 0
1 -9 47 0
1 -44 -4 0
1 39 2 0
1 -38 -37 0
1 -44 26 0
1 7 4 0
1 3 -35 0
1 2 5 0
1 2 -1 0
1 -5 -16 0
1 -17 8 0
1 -44 -28 0
1 3 28 0
1 -31 -33 0
1 18 34 0
1 -38 -40 0
1 -40 -2 0
1 -18 -23 0
1 -30 31 0
1 8 30 0
1 7 -21 0
1 4 50 0
1 -33 46 0
1 35 21 0
1 22 -43 0
1 16 -5 0
1 36 -12 0
1 41 -28 0
1 -48 24 0
1 23 5 0
1 -1 -14 0
1 34 36 0
1 -29 -44 0
1 17 -38 0
1 6 -12 0
1 -15 -16 0
1 50 32 0
1 5 17 0
1 43 -40 0
1 50 -6 0
1 49 50 0
1 -38 -30 0
1 -41 12 0
1 -27 -6 0
1 -37 -4 0
1 21 36 0
1 -25 10 0
1 15 48 0
1 -48 -14 0
1 -43 -22 0
1 -33 3 0
1 -9 -32 0
1 -35 16 0
1 1 -46 0
1 -5 10 0
1 -7 2 0
1 -16 11 0
1 -33 18 0
1 20 -29 0
1 10 -9 0
1 -25 10 0
1 5 18 0
1 -27 -1 0
1 -3 10 0
1 21 27 0
1 44 16 0
1 -45 41 0
1 -50 15 0
1 -24 -49 0
1 -16 -49 0
1 -50 15 0
1 25 -14 0
1 -41 -44 0
1 -10 16 0
1 6 39 0
1 -3 -6 0
1 4 28 0
1 27 -42 0
1 -6 -38 0
1 -2 -46 0
1 -40 -24 0
1 39 -23 0
1 -11 9 0
1 -14 29 0
1 -7 -45 0
1 37 -49 0
1 37 -36 0
1 -32 48 0
1 22 5 0
1 27 -22 0
1 30 -4 0
1 33 -42 0
1 36 48 0
1 47 -30 0
1 16 -37 0
1 35 1 0
1 5 -38 0
1 9 -20 0
1 -24 20 0
1 -11 -44 0
1 41 -17 0
1 47 33 0
1 20 41 0
1 41 -27 0
1 -14 26 0
1 46 45 0
1 -15 42 0
1 35 -22 0
1 39 -41 0
1 -23 -34 0
1 -24 6 0
1 33 -5 0
1 31 -37 0
1 -32 -27 0
1 19 21 0
1 -42 -43 0
1 33 42 0
1 -25 -12 0
1 17 -43 0
1 -48 -24 0
1 11 -12 0
1 -39 48 0
1 18 10 0
1 -2 -39 0
1 -30 4 0
1 15 -38 0
1 -30 -16 0
1 40 -25 0
1 -36 9 0
1 -7 30 0
1 -39 -41 0
1 -29 23 0
1 26 -15 0
1 3 -15 0
1 30 50 0
1 24 15 0
1 -24 -10 0
1 40 -15 0
1 6 -38 0
1 -11 -45 0
1 -9 5 0
1 -20 -46 0
1 46 3 0
1 -18 -37 0
1 47 -13 0
1 28 -25 0
1 13 34 0
1 28 -11 0
1 -16 -34 0
1 -30 40 0
1 -43 3 0
1 -40 -24 0
1 37 21 0
1 -45 36 0
1 -20 -16 0
1 -26 -38 0
1 -22 30 0
1 20 11 0
1 14 19 0
1 -43 -22 0
1 -42 -10 0
1 -46 40 0
1 6 -23 0
1 11 -44 0
1 -24 -50 0
1 11 7 0
1 -26 28 0
1 -49 -14 0
1 -24 39 0
1 -29 -19 0
1 42 45 0
1 -39 37 0
1 37 -16 0
1 22 -13 0
1 40 -46 0
1 -10 -12 0
1 50 -4 0
1 23 35 0
1 29 26 0
1 -13 -50 0
1 -15 -36 0
1 -48 -16 0
1 -11 50 0
1 11 4 0
1 -8 -3 0
1 -37 1 0
1 -27 -11 0
1 -10 12 0
1 48 -34 0
1 -49 46 0
1 -45 8 0
1 12 31 0
1 -34 6 0
1 -7 -43 0
1 4 18 0
1 -29 -10 0
1 44 -49 0
1 45 -4 0
1 -12 30 0
1 -10 -12 0
1 17 40 0
1 33 -48 0
1 -15 -28 0
1 -37 -20 0
1 -41 -22 0
1 23 18 0
1 13 30 0
1 -21 5 0
1 -17 13 0
1 -18 -29 0
1 -28 23 0
1 -42 -13 0
1 -35 27 0
1 45 34 0
1 -13 -21 0
1 -25 -20 0
1 33 -37 0
1 -15 -35 0
1 7 -27 0
1 -40 3 0
1 -30 9 0
1 -42 40 0
1 -10 -11 0
1 -30 31 0
1 17 -31 0
1 16 7 0
1 34 28 0
1 -31 1 0
1 -10 27 0
1 16 15 0
1 25 43 0
1 23 -35 0
1 16 -29 0
1 35 44 0
1 -21 22 0
1 23 -38 0
1 -14 -45 0
1 10 -38 0
1 -31 14 0
1 -49 5 0
1 -34 14 0
1 -7 -48 0
1 -19 -28 0
1 16 -40 0
1 35 -7 0
1 -45 13 0
1 -26 17 0
1 -22 21 0
1 34 -33 0
1 30 -9 0
1 -37 47 0
1 -36 14 0
1 21 40 0
1 -2 -42 0
1 8 -17 0
1 -37 40 0
1 22 5 0
1 14 -29 0
1 25 41 0
1 -5 33 0
1 -22 45 0
1 36 -29 0
1 45 -2 0
1 41 6 0
1 11 13 0
1 42 15 0
1 -6 26 0
1 -9 -7 0
1 1 -25 0
1 -3 -4 0
1 -5 -4 0
1 9 32 0
1 -45 -23 0
1 38 -18 0
1 43 27 0
1 -33 -39 0
1 13 34 0
1 37 -1 0
1 -4 42 0
1 -23 46 0
1 18 26 0
1 -43 -4 0
1 -30 1 0
1 -39 17 0
1 1 -17 0
1 -18 30 0
1 -21 -16 0
1 11 -17 0
1 -42 -13 0
1 16 -30 0
1 31 6 0
1 22 5 0
1 22 -37 0
1 17 -39 0
1 -5 46 0
1 -12 42 0
1 -5 27 0
1 7 -5 0
1 11 -24 0
1 29 -25 0
1 -12 -15 0
1 3 50 0
1 45 46 0
1 37 -16 0
1 42 -45 0
1 -50 26 0
1 -50 -40 0
1 -15 -47 0
1 11 17 0
1 17 18 0
1 14 -43 0
1 -8 -26 0
1 -21 1 0
1 -26 -33 0
1 22 -23 0
1 19 -31 0
1 -47 15 0
1 33 -13 0
1 -5 42 0
1 18 -35 0
1 35 11 0
1 -43 40 0
1 -12 -39 0
1 19 11 0
1 -26 3 0
1 15 4 0
1 -45 49 0
1 34 44 0
1 -4 -10 0
1 50 15 0
1 -4 10 0
1 -21 -2 0
1 4 18 0
1 -21 8 0
1 -7 -19 0
1 13 29 0
1 39 -38 0
1 -3 23 0
1 -32 40 0
1 -41 -16 0
1 34 1 0
1 9 49 0
1 17 -47 0
1 -26 13 0
1 50 8 0
1 30 50 0
1 39 -35 0
1 1 -10 0
1 -10 36 0
1 -34 7 0
1 -3 -37 0
1 -49 -25 0
1 32 43 0
1 43 -8 0
1 43 -34 0
1 -43 35 0
1 20 15 0
1 21 3 0
1 40 -33 0
1 -8 -44 0
1 -37 -38 0
1 45 -21 0
1 -5 -21 0
1 -5 8 0
1 -23 -20 0
1 23 30 0
1 -13 19 0
1 13 -37 0
1 -24 8 0
1 29 -39 0
1 -9 36 0
1 -44 28 0
1 48 14 0
1 -44 25 0
1 44 32 0
1 19 -33 0
1 40 33 0
1 -22 -16 0
1 -1 -29 0
1 7 31 0
1 45 -18 0
1 -43 -6 0
1 -38 18 0
1 -50 -46 0
1 29 -8 0
1 -23 7 0
1 35 -24 0
1 -5 -28 0
1 -45 -20 0
1 26 30 0
1 47 -14 0
1 -10 -17 0
1 -24 -42 0
1 48 -17 0
1 41 -38 0
1 -15 20 0
1 -40 30 0
1 -9 20 0
1 34 -47 0
1 -13 -36 0
1 -27 19 0
1 36 -1 0
1 38 31 0
1 50 -13 0
1 42 9 0
1 28 31 0
1 27 -7 0
1 42 35 0
1 -3 -7 0
1 7 -50 0
1 -30 -32 0
1 44 -9 0
1 -17 -21 0
1 2 -41 0
1 47 -9 0
1 43 -42 0
1 -48 50 0
1 -49 -44 0
1 26 47 0
1 6 25 0
1 46 -40 0
1 -31 -21 0
1 29 44 0
1 36 -23 0
1 -23 47 0
1 -41 38 0
1 -35 -7 0
1 32 -40 0
1 30 27 0
1 -48 -1 0
1 -44 -3 0
1 25 -14 0
1 11 50 0
1 37 18 0
1 24 2 0
1 -42 22 0
1 -49 -7 0
1 7 18 0
1 -20 -21 0
1 -35 -41 0
1 -40 -9 0
1 -27 -12 0
1 14 9 0
1 -31 -37 0
1 -44 6 0
1 23 -49 0
1 -20 30 0
1 -20 28 0
1 -37 43 0
1 5 35 0
1 43 17 0
1 4 -50 0
1 -6 -29 0
1 28 -49 0
1 29 -7 0
1 34 49 0
1 -42 -45 0
1 29 45 0
1 -12 38 0
1 37 -48 0
1 26 11 0
1 -10 -41 0
1 -47 -1 0
1 -49 -45 0
1 -40 32 0
1 -26 -50 0
1 38 35 0
1 33 15 0
1 26 -36 0
1 27 12 0
1 12 10 0
1 -5 -3 0
1 35 34 0
1 -34 3 0
1 -38 50 0
1 -14 -11 0
1 47 40 0
1 -1 47 0
1 7 48 0
1 50 -20 0
1 -4 -17 0
1 20 41 0
1 -41 2 0
1 -12 4 0
1 -44 -18 0
1 15 25 0
1 -23 27 0
1 47 -37 0
1 -4 49 0
1 -40 -44 0
1 -45 5 0
1 9 28 0
1 -45 44 0
1 -19 -1 0
1 27 12 0
1 48 18 0
1 17 10 0
1 -3 -2 0
1 6 20 0
1 47 -17 0
1 -11 -12 0
1 12 -30 0
1 41 -31 0
1 -48 35 0
1 45 -11 0
1 -13 6 0
1 -25 48 0
1 15 49 0
1 10 12 0
1 41 -22 0
1 3 23 0
1 7 14 0
1 -34 -49 0
1 43 -49 0
1 31 -35 0
1 -48 30 0
1 -33 11 0
1 22 -31 0
1 -50 8 0
1 22 2 0
1 -50 -4 0
1 -2 -8 0
1 42 -37 0
1 -17 -2 0
1 13 -48 0
1 -29 -11 0
1 -18 -27 0
1 -28 -7 0
1 10 37 0
1 -44 -1 0
1 38 6 0
1 8 23 0
1 20 -7 0
1 -17 -29 0
1 6 -9 0
1 16 10 0
1 -29 -37 0
1 30 -32 0
1 -6 -20 0
1 -23 -12 0
1 -15 -46 0
1 -21 -29 0
1 -2 31 0
1 41 20 0
1 -6 -16 0
1 47 14 0
1 -34 14 0
1 -26 -28 0
1 -24 -30 0
1 9 31 0
1 -12 18 0
1 38 -47 0
1 -12 18 0
1 31 49 0
1 12 -40 0
1 -18 -5 0
1 -34 -9 0
1 40 8 0
1 26 29 0
1 25 -24 0
1 -42 33 0
1 -32 -4 0
1 -43 6 0
1 -11 -6 0
1 -15 35 0
1 42 38 0
1 -16 -10 0
1 -33 35 0
1 -17 -20 0
1 -23 33 0
1 -39 -21 0
1 -27 -26 0
1 -10 28 0
1 15 -2 0
1 11 -47 0
1 31 -47 0
1 -17 -15 0
1 47 -37 0
1 -8 -30 0
1 -6 26 0
1 4 22 0
1 -23 -34 0
1 -30 19 0
1 15 -45 0
1 9 4 0
1 -41 -25 0
1 -5 23 0
1 49 8 0
1 29 40 0
1 -24 17 0
1 35 -11 0
1 -6 22 0
1 26 50 0
1 25 -8 0
1 -31 -46 0
1 -4 -13 0
1 -3 -49 0
1 -16 19 0
1 -30 -42 0
1 -14 -30 0
1 30 16 0
1 -24 19 0
1 -15 20 0
1 32 -12 0
1 11 -35 0
1 -3 -38 0
1 30 -27 0
1 -6 -15 0
1 -30 36 0
1 4 20 0
1 39 36 0
1 36 5 0
1 15 38 0
1 -15 -5 0
1 -21 -25 0
1 6 -32 0
1 -19 45 0
1 13 -28 0
1 -48 14 0
1 25 4 0
1 -26 -20 0
1 2 -19 0
1 -16 -37 0
1 2 23 0
1 -17 -4 0
1 -31 -7 0
1 -21 -11 0
1 14 -49 0
1 18 36 0
1 -5 22 0
1 8 27 0
1 -49 32 0
1 -35 21 0
1 -28 -21 0
1 -32 -25 0
1 -23 -2 0
1 38 -5 0
1 27 -5 0
1 -31 -28 0
1 -9 -19 0
1 40 38 0
1 9 -2 0
1 -26 -9 0
1 -11 -21 0
1 -26 50 0
1 -5 -1 0
1 28 -26 0
1 -45 -8 0
1 46 38 0
1 -39 18 0
1 26 -30 0
1 -50 3 0
1 -2 23 0
1 -24 11 0
1 -37 -5 0
1 13 17 0
1 4 -17 0
1 34 6 0
1 -36 -21 0
1 23 29 0
1 -2 37 0
1 -47 -21 0
1 26 -13 0
1 -29 -30 0
1 46 -7 0
1 -13 -32 0
1 -2 35 0
1 -14 44 0
1 -30 40 0
1 -16 -10 0
1 24 13 0
1 -8 38 0
1 -13 -29 0
1 -18 25 0
1 8 21 0
1 -20 -32 0
1 -22 -7 0
1 17 -25 0
1 -38 -21 0
1 9 42 0
1 20 -36 0
1 11 -40 0
1 -6 -19 0
1 50 49 0
1 48 46 0
1 11 -13 0
1 -5 -4 0
1 13 -11 0
1 25 -2 0
1 41 -28 0
1 -47 -15 0
1 13 43 0
1 -39 -24 0
1 -37 -41 0
1 -44 20 0
1 30 2 0
1 -3 -14 0
1 -41 -5 0
1 -19 -23 0
1 -15 35 0
1 8 -22 0
1 -12 32 0
1 2 -21 0
1 -23 -17 0
1 31 24 0
1 28 -8 0
1 -31 -41 0
1 -25 -18 0
1 -40 1 0
1 33 -12 0
1 33 20 0
1 -36 49 0
1 -23 49 0
1 -7 -47 0
1 -38 25 0
1 -43 -32 0
1 -32 22 0
1 -33 42 0
1 11 -13 0
1 12 -50 0
1 -48 1 0
1 -47 -32 0
1 -7 -23 0
1 -4 -41 0
1 13 -16 0
1 7 49 0
1 11 30 0
1 30 -27 0
1 -28 41 0
1 23 -22 0
1 -44 -3 0
1 -44 9 0
1 24 -35 0
1 -33 -11 0
1 41 12 0
1 -38 22 0
1 -13 -28 0
1 50 -46 0
1 -49 -42 0
1 -1 25 0
1 10 -48 0
1 -9 -2 0
1 13 -2 0
1 24 -17 0
1 45 -3 0
1 -49 -35 0
1 -27 -28 0
1 3 37 0
1 35 -5 0
1 -6 41 0
1 42 12 0
1 28 33 0
1 36 -21 0
1 -6 -3 0
1 31 -20 0
1 -6 -8 0
1 -12 50 0
1 -41 -26 0
1 -37 3 0
1 -35 47 0
1 18 4 0
1 6 -34 0
1 4 12 0
1 -20 -16 0
1 -16 32 0
1 -8 -33 0
1 36 35 0
1 -32 -46 0
1 49 44 0
1 -28 -27 0
1 -39 12 0
1 -27 -39 0
1 -21 -37 0
1 20 37 0
1 -22 30 0
1 25 16 0
1 -10 -24 0
1 1 -19 0
1 -30 8 0
1 -46 35 0
1 -21 -48 0
1 -35 14 0
1 44 21 0
1 -37 -10 0
1 -34 -19 0
1 37 2 0
1 10 18 0
1 3 22 0
1 20 14 0
1 28 9 0
1 -29 17 0
1 26 30 0
1 -49 -46 0
1 47 15 0
1 33 -25 0
1 46 32 0
1 46 21 0
1 -30 27 0
1 43 33 0
1 -13 35 0
1 -30 -20 0
1 -34 48 0
1 22 44 0
1 -26 9 0
1 -30 50 0
1 26 38 0
1 -21 -39 0
1 -23 13 0
1 -32 39 0
1 -36 11 0
1 5 -32 0
1 41 6 0
1 -5 -46 0
1 -33 45 0
1 34 -36 0
1 -29 9 0
1 37 -43 0
1 24 10 0
1 -34 -32 0
1 -33 -16 0
1 44 -24 0
1 22 14 0
1 49 -29 0
1 -38 28 0
1 20 -46 0
1 -6 -23 0
1 -4 -44 0
1 9 23 0
1 -46 24 0
1 37 -14 0
1 42 -23 0
1 1 6 0
1 1 24 0
1 -46 -11 0
1 -4 25 0
1 47 -49 0
1 23 7 0
1 -20 32 0
1 -4 6 0
1 11 43 0
1 17 37 0
1 48 14 0
1 38 -48 0
1 -47 29 0
1 -35 36 0
1 17 22 0
1 28 -6 0
1 48 -50 0
1 -18 -26 0
1 38 -32 0
1 -45 4 0
1 30 50 0
1 -27 -12 0
1 27 -1 0
1 -25 13 0
1 13 -44 0
1 20 36 0
1 -18 32 0
1 -35 23 0
1 -23 -43 0
1 -5 -10 0
1 11 -21 0
1 33 -43 0
1 37 12 0
1 47 37 0
1 -18 5 0
1 28 -11 0
1 -4 46 0
1 -6 44 0
1 14 -3 0
1 -46 -8 0
1 -19 16 0
1 -3 1 0
1 6 -5 0
1 -16 39 0
1 -34 -31 0
1 25 -18 0
1 -21 6 0
1 -13 -26 0
1 -42 -37 0
1 38 -26 0
1 -31 -36 0
1 25 10 0
1 -41 45 0
1 12 -3 0
1 -9 38 0
1 13 47 0
1 -34 50 0
1 25 11 0
1 47 41 0
1 -1 -19 0
1 13 27 0
1 29 -9 0
1 46 4 0
1 1 -12 0
1 12 -9 0
1 19 42 0
1 44 36 0
1 15 -1 0
1 6 49 0
1 4 8 0
1 -17 -9 0
1 -43 -40 0
1 26 5 0
1 20 26 0
1 36 -24 0
1 -48 -10 0
1 -29 -7 0
1 16 -8 0
1 16 30 0
1 20 -45 0
1 49 21 0
1 46 -23 0
1 46 -42 0
1 -1 -9 0
1 15 -39 0
1 46 18 0
1 48 21 0
1 16 24 0
1 -44 -23 0
1 45 -5 0
1 -47 -38 0
1 -46 22 0
1 -10 42 0
1 10 2 0
1 23 -37 0
1 10 34 0
1 -7 34 0
1 -39 -14 0
1 -1 -24 0
1 46 9 0
1 50 48 0
1 50 28 0
1 14 39 0
1 -23 -12 0
1 -46 -21 0
1 34 -21 0
1 -45 -1 0
1 -9 39 0
1 37 -5 0
1 32 -34 0
1 22 -19 0
1 30 -45 0
1 16 -4 0
1 -24 28 0
1 29 -15 0
1 -4 -2 0
1 -7 -12 0
1 -45 35 0
1 3 -2 0
1 47 36 0
1 39 17 0
1 45 31 0
1 38 -10 0
1 -4 3 0
1 28 34 0
1 18 28 0
1 40 47 0
1 5 26 0
1 36 -25 0
1 -6 -39 0
1 -48 2 0
1 4 -28 0
1 -12 -28 0
1 -6 -8 0
1 4 11 0
1 -37 32 0
1 7 45 0
1 33 -42 0
1 -43 -36 0
1 -14 50 0
1 27 -21 0
1 -28 -50 0
1 -11 -45 0
1 27 -18 0
1 -12 -23 0
1 14 49 0
1 35 -7 0
1 6 -30 0
1 50 -26 0
1 26 -41 0
1 -36 47 0
1 -14 -4 0
1 27 -40 0
1 -39 44 0
1 1 49 0
1 -29 -45 0
1 21 -3 0
1 -43 -13 0
1 -9 17 0
1 -21 -35 0
1 -24 17 0
1 -11 34 0
1 32 8 0
1 -3 5 0
1 8 -42 0
1 -5 3 0
1 -20 -17 0
1 -2 32 0
1 -49 24 0
1 7 -24 0
1 -32 -36 0
1 41 -36 0
1 -28 -27 0
1 -29 -26 0
1 -42 -29 0
1 11 24 0
1 48 6 0
1 -30 37 0
1 -23 40 0
1 25 2 0
1 -29 9 0
1 34 -29 0
1 7 42 0
1 -16 37 0
1 42 45 0
1 -32 8 0
1 47 28 0
1 30 27 0
1 35 8 0
1 -37 -19 0
1 10 11 0
1 -47 -38 0
1 33 3 0
1 11 43 0
1 -20 -33 0
1 9 -3 0
1 11 -20 0
1 -38 -3 0
1 14 1 0
1 -39 10 0
1 -13 10 0
1 -2 1 0
1 33 -8 0
1 -11 26 0
1 45 -44 0
1 -46 7 0
1 7 -3 0
1 12 19 0
1 -28 -49 0
1 -49 -27 0
1 35 -20 0
1 45 -6 0
1 50 -33 0
1 39 -1 0
1 -3 24 0
1 -42 6 0
1 -5 36 0
1 -12 -48 0
1 -17 7 0
1 -13 6 0
1 38 -21 0
1 21 12 0
1 -35 -13 0
1 -18 27 0
1 -12 43 0
1 41 10 0
1 17 -9 0
1 -14 17 0
1 -37 49 0
1 -10 -50 0
1 12 -19 0
1 45 15 0
1 -8 -26 0
1 36 48 0
1 -7 21 0
1 38 23 0
1 -21 -50 0
1 49 11 0
1 -30 44 0
1 -9 39 0
1 15 -10 0
1 7 18 0
1 -39 -33 0
1 -5 6 0
1 5 29 0
1 40 28 0
1 -22 -50 0
1 -38 23 0
1 32 -9 0
1 26 3 0
1 -36 -37 0
1 42 -38 0
1 -17 20 0
1 -48 11 0
1 -11 -19 0
1 42 44 0
1 -2 13 0
1 -15 42 0
1 -31 29 0
1 -44 39 0
1 38 -43 0
1 18 -28 0
1 -26 7 0
1 7 2 0
1 14 -48 0
1 -40 1 0
1 -30 21 0
1 -10 -25 0
1 -17 -45 0
1 23 -3 0
1 9 49 0
1 50 38 0
1 -36 35 0
1 -36 19 0
1 -39 -34 0
1 -8 22 0
1 17 -39 0
1 -42 29 0
1 27 -4 0
1 -42 -39 0
1 24 29 0
1 47 -46 0
1 -29 -10 0
1 32 -28 0
1 -17 18 0
1 46 23 0
1 -27 25 0
1 -14 -36 0
1 -15 46 0
1 -41 18 0
1 27 30 0
1 7 15 0
1 -33 -41 0
1 14 -40 0
1 15 -49 0
1 35 -2 0
1 47 -9 0
1 26 6 0
1 35 -12 0
1 27 15 0
1 -6 46 0
1 36 -39 0
1 -37 17 0
1 18 41 0
1 49 29 0
1 -35 9 0
1 21 -36 0
1 1 24 0
1 -20 44 0
1 33 35 0
1 -1 32 0
1 -22 10 0
1 -39 36 0
1 -45 20 0
1 6 1 0
1 25 -19 0
1 -13 -37 0
1 21 2 0
1 -33 4 0
1 13 23 0
1 9 19 0
1 39 -16 0
1 -16 -29 0
1 -48 11 0
1 47 31 0
1 -33 17 0
1 21 -28 0
1 -1 45 0
1 14 9 0
1 -25 -28 0
1 -7 44 0
1 4 -13 0
1 44 -17 0
1 -34 6 0
1 -33 -13 0
1 -7 22 0
1 31 4 0
1 -31 -16 0
1 -9 25 0
1 37 -5 0
1 21 29 0
1 34 49 0
1 11 45 0
1 -16 -43 0
1 46 -8 0
1 24 -45 0
1 -20 6 0
1 -10 -6 0
1 -35 43 0
1 42 -36 0
1 36 -19 0
1 6 48 0
1 -48 -50 0
1 14 19 0
1 -13 18 0
1 4 -9 0
1 -43 -22 0
1 7 -40 0
1 9 22 0
1 -19 44 0
1 43 14 0
1 -33 -21 0
1 38 -5 0
1 -14 15 0
1 -36 -26 0
1 -15 11 0
1 -32 4 0
1 47 -15 0
1 -28 25 0
1 45 -23 0
1 27 -17 0
1 -32 13 0
1 38 36 0
1 -47 -44 0
1 -48 -13 0
1 -27 46 0
1 20 31 0
1 -3 -20 0
%
0

